256
256
256
255
255
255
255
255
255
255
255
255
255
254
253
252
251
251
251
251
296
256
255
255
255
254
254
254
253
252
251
251
250
250
250
250
249
249
249
248
248
296
256
256
256
256
255
255
255
255
255
255
255
255
255
255
255
255
255
255
254
254
296
256
256
255
255
254
254
254
254
254
254
253
253
253
252
252
252
252
252
252
252
296
256
255
255
255
254
254
254
254
254
254
254
254
254
254
253
252
252
252
251
250
298
256
256
256
256
256
256
256
256
256
256
256
256
256
255
255
255
255
255
255
255
296
256
256
256
256
256
256
255
255
254
253
253
253
253
253
253
253
253
253
253
253
296
256
256
255
255
255
255
254
254
254
254
254
254
253
253
252
252
251
250
250
250
296
256
256
256
256
256
256
256
256
256
256
256
256
256
256
256
255
255
255
255
255
294
256
256
256
256
256
256
256
256
256
255
255
255
255
255
255
255
255
255
255
254
294
10 loops, best of 1: 624 msec per loop
